99
0 62 2 44 96 7 78 8 18 60 
37 31 27 76 38 22 77 50 5 49 
81 57 41 70 58 83 97 54 61 21 
86 66 80 65 40 98 55 6 30 28 
79 34 11 68 23 90 26 19 9 74 
85 73 95 10 39 89 87 91 46 67 
15 47 59 75 42 82 17 3 36 56 
33 53 14 16 20 13 93 92 1 29 
94 35 4 52 72 71 12 84 88 69 
32 63 43 51 24 48 25 45 64 
